(set-option :produce-models true)
(set-option :produce-unsat-cores true)
(set-option :produce-interpolants true)
(set-option :interpolant-check-mode true)
(set-option :proof-transformation LU)
(set-logic ALL)
(set-info :source |SMT script generated on 2024-03-31T00:13:58+01:00 by Ultimate (https://ultimate.informatik.uni-freiburg.de/)|)
(set-info :smt-lib-version 2.5)
(set-info :category "industrial")
(set-info :ultimate-id recursified_nested_3.c_AllErrorsAtOnce_Iteration1)
(declare-fun |c_old(#valid)| () (Array Int Int))
(declare-fun |c_old(#valid)_primed| () (Array Int Int))
(declare-fun |c_#valid| () (Array Int Int))
(declare-fun |c_#valid_primed| () (Array Int Int))
(declare-fun |c_old(#length)| () (Array Int Int))
(declare-fun |c_old(#length)_primed| () (Array Int Int))
(declare-fun |c_#length| () (Array Int Int))
(declare-fun |c_#length_primed| () (Array Int Int))
(declare-fun |c_old(#memory_int#0)| () (Array Int (Array Int Int)))
(declare-fun |c_old(#memory_int#0)_primed| () (Array Int (Array Int Int)))
(declare-fun |c_#memory_int#0| () (Array Int (Array Int Int)))
(declare-fun |c_#memory_int#0_primed| () (Array Int (Array Int Int)))
(declare-fun |c_old(#memory_int#1)| () (Array Int (Array Int Int)))
(declare-fun |c_old(#memory_int#1)_primed| () (Array Int (Array Int Int)))
(declare-fun |c_#memory_int#1| () (Array Int (Array Int Int)))
(declare-fun |c_#memory_int#1_primed| () (Array Int (Array Int Int)))
(declare-fun |c_old(#memory_int#2)| () (Array Int (Array Int Int)))
(declare-fun |c_old(#memory_int#2)_primed| () (Array Int (Array Int Int)))
(declare-fun |c_#memory_int#2| () (Array Int (Array Int Int)))
(declare-fun |c_#memory_int#2_primed| () (Array Int (Array Int Int)))
(declare-fun |c_old(#memory_int#3)| () (Array Int (Array Int Int)))
(declare-fun |c_old(#memory_int#3)_primed| () (Array Int (Array Int Int)))
(declare-fun |c_#memory_int#3| () (Array Int (Array Int Int)))
(declare-fun |c_#memory_int#3_primed| () (Array Int (Array Int Int)))
(declare-fun |c_old(#StackHeapBarrier)| () Int)
(declare-fun |c_old(#StackHeapBarrier)_primed| () Int)
(declare-fun |c_#StackHeapBarrier| () Int)
(declare-fun |c_#StackHeapBarrier_primed| () Int)
(declare-fun |c_#Ultimate.allocInit_~size| () Int)
(declare-fun |c_#Ultimate.allocInit_~size_primed| () Int)
(declare-fun |c_#Ultimate.allocInit_ptrBase| () Int)
(declare-fun |c_#Ultimate.allocInit_ptrBase_primed| () Int)
(declare-fun |c_write~init~int#3_#value| () Int)
(declare-fun |c_write~init~int#3_#value_primed| () Int)
(declare-fun |c_write~init~int#3_#ptr.base| () Int)
(declare-fun |c_write~init~int#3_#ptr.base_primed| () Int)
(declare-fun |c_write~init~int#3_#ptr.offset| () Int)
(declare-fun |c_write~init~int#3_#ptr.offset_primed| () Int)
(declare-fun |c_write~init~int#3_#sizeOfWrittenType| () Int)
(declare-fun |c_write~init~int#3_#sizeOfWrittenType_primed| () Int)
(declare-fun |c_read~int#3_#ptr.base| () Int)
(declare-fun |c_read~int#3_#ptr.base_primed| () Int)
(declare-fun |c_read~int#3_#ptr.offset| () Int)
(declare-fun |c_read~int#3_#ptr.offset_primed| () Int)
(declare-fun |c_read~int#3_#sizeOfReadType| () Int)
(declare-fun |c_read~int#3_#sizeOfReadType_primed| () Int)
(declare-fun |c_read~int#3_#value| () Int)
(declare-fun |c_read~int#3_#value_primed| () Int)
(declare-fun |c_read~int#2_#ptr.base| () Int)
(declare-fun |c_read~int#2_#ptr.base_primed| () Int)
(declare-fun |c_read~int#2_#ptr.offset| () Int)
(declare-fun |c_read~int#2_#ptr.offset_primed| () Int)
(declare-fun |c_read~int#2_#sizeOfReadType| () Int)
(declare-fun |c_read~int#2_#sizeOfReadType_primed| () Int)
(declare-fun |c_read~int#2_#value| () Int)
(declare-fun |c_read~int#2_#value_primed| () Int)
(declare-fun |c_read~int#1_#ptr.base| () Int)
(declare-fun |c_read~int#1_#ptr.base_primed| () Int)
(declare-fun |c_read~int#1_#ptr.offset| () Int)
(declare-fun |c_read~int#1_#ptr.offset_primed| () Int)
(declare-fun |c_read~int#1_#sizeOfReadType| () Int)
(declare-fun |c_read~int#1_#sizeOfReadType_primed| () Int)
(declare-fun |c_read~int#1_#value| () Int)
(declare-fun |c_read~int#1_#value_primed| () Int)
(declare-fun |c_read~int#0_#ptr.base| () Int)
(declare-fun |c_read~int#0_#ptr.base_primed| () Int)
(declare-fun |c_read~int#0_#ptr.offset| () Int)
(declare-fun |c_read~int#0_#ptr.offset_primed| () Int)
(declare-fun |c_read~int#0_#sizeOfReadType| () Int)
(declare-fun |c_read~int#0_#sizeOfReadType_primed| () Int)
(declare-fun |c_read~int#0_#value| () Int)
(declare-fun |c_read~int#0_#value_primed| () Int)
(declare-fun |c_main_#res| () Int)
(declare-fun |c_main_#res_primed| () Int)
(declare-fun |c_main_#t~mem13| () Int)
(declare-fun |c_main_#t~mem13_primed| () Int)
(declare-fun |c_main_#t~mem14| () Int)
(declare-fun |c_main_#t~mem14_primed| () Int)
(declare-fun |c_main_#t~short15| () Bool)
(declare-fun |c_main_#t~short15_primed| () Bool)
(declare-fun |c_main_#t~mem16| () Int)
(declare-fun |c_main_#t~mem16_primed| () Int)
(declare-fun |c_main_#t~short17| () Bool)
(declare-fun |c_main_#t~short17_primed| () Bool)
(declare-fun |c_main_~#a~0.base| () Int)
(declare-fun |c_main_~#a~0.base_primed| () Int)
(declare-fun |c_main_~#a~0.offset| () Int)
(declare-fun |c_main_~#a~0.offset_primed| () Int)
(declare-fun |c_main_~#b~0.base| () Int)
(declare-fun |c_main_~#b~0.base_primed| () Int)
(declare-fun |c_main_~#b~0.offset| () Int)
(declare-fun |c_main_~#b~0.offset_primed| () Int)
(declare-fun |c_main_~#c~0.base| () Int)
(declare-fun |c_main_~#c~0.base_primed| () Int)
(declare-fun |c_main_~#c~0.offset| () Int)
(declare-fun |c_main_~#c~0.offset_primed| () Int)
(declare-fun |c_write~int#0_#value| () Int)
(declare-fun |c_write~int#0_#value_primed| () Int)
(declare-fun |c_write~int#0_#ptr.base| () Int)
(declare-fun |c_write~int#0_#ptr.base_primed| () Int)
(declare-fun |c_write~int#0_#ptr.offset| () Int)
(declare-fun |c_write~int#0_#ptr.offset_primed| () Int)
(declare-fun |c_write~int#0_#sizeOfWrittenType| () Int)
(declare-fun |c_write~int#0_#sizeOfWrittenType_primed| () Int)
(declare-fun |c_#Ultimate.allocOnStack_~size| () Int)
(declare-fun |c_#Ultimate.allocOnStack_~size_primed| () Int)
(declare-fun |c_#Ultimate.allocOnStack_#res.base| () Int)
(declare-fun |c_#Ultimate.allocOnStack_#res.base_primed| () Int)
(declare-fun |c_#Ultimate.allocOnStack_#res.offset| () Int)
(declare-fun |c_#Ultimate.allocOnStack_#res.offset_primed| () Int)
(declare-fun |c_write~int#1_#value| () Int)
(declare-fun |c_write~int#1_#value_primed| () Int)
(declare-fun |c_write~int#1_#ptr.base| () Int)
(declare-fun |c_write~int#1_#ptr.base_primed| () Int)
(declare-fun |c_write~int#1_#ptr.offset| () Int)
(declare-fun |c_write~int#1_#ptr.offset_primed| () Int)
(declare-fun |c_write~int#1_#sizeOfWrittenType| () Int)
(declare-fun |c_write~int#1_#sizeOfWrittenType_primed| () Int)
(declare-fun |c_write~int#2_#value| () Int)
(declare-fun |c_write~int#2_#value_primed| () Int)
(declare-fun |c_write~int#2_#ptr.base| () Int)
(declare-fun |c_write~int#2_#ptr.base_primed| () Int)
(declare-fun |c_write~int#2_#ptr.offset| () Int)
(declare-fun |c_write~int#2_#ptr.offset_primed| () Int)
(declare-fun |c_write~int#2_#sizeOfWrittenType| () Int)
(declare-fun |c_write~int#2_#sizeOfWrittenType_primed| () Int)
(declare-fun |c_func_to_recursive_line_23_to_23_0_#in~c.base| () Int)
(declare-fun |c_func_to_recursive_line_23_to_23_0_#in~c.base_primed| () Int)
(declare-fun |c_func_to_recursive_line_23_to_23_0_#in~c.offset| () Int)
(declare-fun |c_func_to_recursive_line_23_to_23_0_#in~c.offset_primed| () Int)
(declare-fun |c_func_to_recursive_line_23_to_23_0_#t~mem4| () Int)
(declare-fun |c_func_to_recursive_line_23_to_23_0_#t~mem4_primed| () Int)
(declare-fun |c_func_to_recursive_line_23_to_23_0_#t~mem5| () Int)
(declare-fun |c_func_to_recursive_line_23_to_23_0_#t~mem5_primed| () Int)
(declare-fun |c_func_to_recursive_line_23_to_23_0_#t~pre6| () Int)
(declare-fun |c_func_to_recursive_line_23_to_23_0_#t~pre6_primed| () Int)
(declare-fun c_func_to_recursive_line_23_to_23_0_~c.base () Int)
(declare-fun c_func_to_recursive_line_23_to_23_0_~c.base_primed () Int)
(declare-fun c_func_to_recursive_line_23_to_23_0_~c.offset () Int)
(declare-fun c_func_to_recursive_line_23_to_23_0_~c.offset_primed () Int)
(declare-fun |c_write~int#3_#value| () Int)
(declare-fun |c_write~int#3_#value_primed| () Int)
(declare-fun |c_write~int#3_#ptr.base| () Int)
(declare-fun |c_write~int#3_#ptr.base_primed| () Int)
(declare-fun |c_write~int#3_#ptr.offset| () Int)
(declare-fun |c_write~int#3_#ptr.offset_primed| () Int)
(declare-fun |c_write~int#3_#sizeOfWrittenType| () Int)
(declare-fun |c_write~int#3_#sizeOfWrittenType_primed| () Int)
(declare-fun |c_func_to_recursive_line_22_to_23_0_#in~b.base| () Int)
(declare-fun |c_func_to_recursive_line_22_to_23_0_#in~b.base_primed| () Int)
(declare-fun |c_func_to_recursive_line_22_to_23_0_#in~b.offset| () Int)
(declare-fun |c_func_to_recursive_line_22_to_23_0_#in~b.offset_primed| () Int)
(declare-fun |c_func_to_recursive_line_22_to_23_0_#in~c.base| () Int)
(declare-fun |c_func_to_recursive_line_22_to_23_0_#in~c.base_primed| () Int)
(declare-fun |c_func_to_recursive_line_22_to_23_0_#in~c.offset| () Int)
(declare-fun |c_func_to_recursive_line_22_to_23_0_#in~c.offset_primed| () Int)
(declare-fun |c_func_to_recursive_line_22_to_23_0_#t~mem7| () Int)
(declare-fun |c_func_to_recursive_line_22_to_23_0_#t~mem7_primed| () Int)
(declare-fun |c_func_to_recursive_line_22_to_23_0_#t~mem8| () Int)
(declare-fun |c_func_to_recursive_line_22_to_23_0_#t~mem8_primed| () Int)
(declare-fun |c_func_to_recursive_line_22_to_23_0_#t~pre9| () Int)
(declare-fun |c_func_to_recursive_line_22_to_23_0_#t~pre9_primed| () Int)
(declare-fun c_func_to_recursive_line_22_to_23_0_~b.base () Int)
(declare-fun c_func_to_recursive_line_22_to_23_0_~b.base_primed () Int)
(declare-fun c_func_to_recursive_line_22_to_23_0_~b.offset () Int)
(declare-fun c_func_to_recursive_line_22_to_23_0_~b.offset_primed () Int)
(declare-fun c_func_to_recursive_line_22_to_23_0_~c.base () Int)
(declare-fun c_func_to_recursive_line_22_to_23_0_~c.base_primed () Int)
(declare-fun c_func_to_recursive_line_22_to_23_0_~c.offset () Int)
(declare-fun c_func_to_recursive_line_22_to_23_0_~c.offset_primed () Int)
(declare-fun |c_ULTIMATE.start_#t~ret18| () Int)
(declare-fun |c_ULTIMATE.start_#t~ret18_primed| () Int)
(declare-fun |c_write~init~int#2_#value| () Int)
(declare-fun |c_write~init~int#2_#value_primed| () Int)
(declare-fun |c_write~init~int#2_#ptr.base| () Int)
(declare-fun |c_write~init~int#2_#ptr.base_primed| () Int)
(declare-fun |c_write~init~int#2_#ptr.offset| () Int)
(declare-fun |c_write~init~int#2_#ptr.offset_primed| () Int)
(declare-fun |c_write~init~int#2_#sizeOfWrittenType| () Int)
(declare-fun |c_write~init~int#2_#sizeOfWrittenType_primed| () Int)
(declare-fun |c_write~init~int#1_#value| () Int)
(declare-fun |c_write~init~int#1_#value_primed| () Int)
(declare-fun |c_write~init~int#1_#ptr.base| () Int)
(declare-fun |c_write~init~int#1_#ptr.base_primed| () Int)
(declare-fun |c_write~init~int#1_#ptr.offset| () Int)
(declare-fun |c_write~init~int#1_#ptr.offset_primed| () Int)
(declare-fun |c_write~init~int#1_#sizeOfWrittenType| () Int)
(declare-fun |c_write~init~int#1_#sizeOfWrittenType_primed| () Int)
(declare-fun |c___assert_fail_#in~0.base| () Int)
(declare-fun |c___assert_fail_#in~0.base_primed| () Int)
(declare-fun |c___assert_fail_#in~0.offset| () Int)
(declare-fun |c___assert_fail_#in~0.offset_primed| () Int)
(declare-fun |c___assert_fail_#in~1.base| () Int)
(declare-fun |c___assert_fail_#in~1.base_primed| () Int)
(declare-fun |c___assert_fail_#in~1.offset| () Int)
(declare-fun |c___assert_fail_#in~1.offset_primed| () Int)
(declare-fun |c___assert_fail_#in~2| () Int)
(declare-fun |c___assert_fail_#in~2_primed| () Int)
(declare-fun |c___assert_fail_#in~3.base| () Int)
(declare-fun |c___assert_fail_#in~3.base_primed| () Int)
(declare-fun |c___assert_fail_#in~3.offset| () Int)
(declare-fun |c___assert_fail_#in~3.offset_primed| () Int)
(declare-fun |c_func_to_recursive_line_21_to_22_0_#in~a.base| () Int)
(declare-fun |c_func_to_recursive_line_21_to_22_0_#in~a.base_primed| () Int)
(declare-fun |c_func_to_recursive_line_21_to_22_0_#in~a.offset| () Int)
(declare-fun |c_func_to_recursive_line_21_to_22_0_#in~a.offset_primed| () Int)
(declare-fun |c_func_to_recursive_line_21_to_22_0_#in~b.base| () Int)
(declare-fun |c_func_to_recursive_line_21_to_22_0_#in~b.base_primed| () Int)
(declare-fun |c_func_to_recursive_line_21_to_22_0_#in~b.offset| () Int)
(declare-fun |c_func_to_recursive_line_21_to_22_0_#in~b.offset_primed| () Int)
(declare-fun |c_func_to_recursive_line_21_to_22_0_#in~c.base| () Int)
(declare-fun |c_func_to_recursive_line_21_to_22_0_#in~c.base_primed| () Int)
(declare-fun |c_func_to_recursive_line_21_to_22_0_#in~c.offset| () Int)
(declare-fun |c_func_to_recursive_line_21_to_22_0_#in~c.offset_primed| () Int)
(declare-fun |c_func_to_recursive_line_21_to_22_0_#t~mem10| () Int)
(declare-fun |c_func_to_recursive_line_21_to_22_0_#t~mem10_primed| () Int)
(declare-fun |c_func_to_recursive_line_21_to_22_0_#t~mem11| () Int)
(declare-fun |c_func_to_recursive_line_21_to_22_0_#t~mem11_primed| () Int)
(declare-fun |c_func_to_recursive_line_21_to_22_0_#t~pre12| () Int)
(declare-fun |c_func_to_recursive_line_21_to_22_0_#t~pre12_primed| () Int)
(declare-fun c_func_to_recursive_line_21_to_22_0_~a.base () Int)
(declare-fun c_func_to_recursive_line_21_to_22_0_~a.base_primed () Int)
(declare-fun c_func_to_recursive_line_21_to_22_0_~a.offset () Int)
(declare-fun c_func_to_recursive_line_21_to_22_0_~a.offset_primed () Int)
(declare-fun c_func_to_recursive_line_21_to_22_0_~b.base () Int)
(declare-fun c_func_to_recursive_line_21_to_22_0_~b.base_primed () Int)
(declare-fun c_func_to_recursive_line_21_to_22_0_~b.offset () Int)
(declare-fun c_func_to_recursive_line_21_to_22_0_~b.offset_primed () Int)
(declare-fun c_func_to_recursive_line_21_to_22_0_~c.base () Int)
(declare-fun c_func_to_recursive_line_21_to_22_0_~c.base_primed () Int)
(declare-fun c_func_to_recursive_line_21_to_22_0_~c.offset () Int)
(declare-fun c_func_to_recursive_line_21_to_22_0_~c.offset_primed () Int)
(declare-fun |c_write~init~int#0_#value| () Int)
(declare-fun |c_write~init~int#0_#value_primed| () Int)
(declare-fun |c_write~init~int#0_#ptr.base| () Int)
(declare-fun |c_write~init~int#0_#ptr.base_primed| () Int)
(declare-fun |c_write~init~int#0_#ptr.offset| () Int)
(declare-fun |c_write~init~int#0_#ptr.offset_primed| () Int)
(declare-fun |c_write~init~int#0_#sizeOfWrittenType| () Int)
(declare-fun |c_write~init~int#0_#sizeOfWrittenType_primed| () Int)
(declare-fun c_ULTIMATE.dealloc_~addr.base () Int)
(declare-fun c_ULTIMATE.dealloc_~addr.base_primed () Int)
(declare-fun c_ULTIMATE.dealloc_~addr.offset () Int)
(declare-fun c_ULTIMATE.dealloc_~addr.offset_primed () Int)
(declare-fun |c_aux_v_main_#t~mem13_4| () Int)
(declare-fun |c_aux_v_main_#t~mem14_4| () Int)
(declare-fun |c_aux_v_main_#t~mem16_4| () Int)
(declare-fun |c_aux_v_ULTIMATE.start_#t~ret18_3| () Int)
(echo "starting trace check")
(push 1)
(declare-fun |#memory_int#0_-1| () (Array Int (Array Int Int)))
(declare-fun |#valid_-1| () (Array Int Int))
(declare-fun |#length_-1| () (Array Int Int))
(declare-fun |#memory_int#2_-1| () (Array Int (Array Int Int)))
(declare-fun |#memory_int#1_-1| () (Array Int (Array Int Int)))
(declare-fun |#memory_int#3_-1| () (Array Int (Array Int Int)))
(declare-fun |old(#memory_int#0)_-1| () (Array Int (Array Int Int)))
(declare-fun |old(#valid)_-1| () (Array Int Int))
(declare-fun |old(#length)_-1| () (Array Int Int))
(declare-fun |old(#memory_int#2)_-1| () (Array Int (Array Int Int)))
(declare-fun |old(#memory_int#1)_-1| () (Array Int (Array Int Int)))
(declare-fun |old(#memory_int#3)_-1| () (Array Int (Array Int Int)))
(declare-fun |#StackHeapBarrier_-1| () Int)
(declare-fun |old(#valid)_3| () (Array Int Int))
(declare-fun |old(#length)_3| () (Array Int Int))
(declare-fun |old(#memory_int#2)_3| () (Array Int (Array Int Int)))
(declare-fun |old(#memory_int#1)_3| () (Array Int (Array Int Int)))
(declare-fun |old(#memory_int#3)_3| () (Array Int (Array Int Int)))
(declare-fun |#valid_3| () (Array Int Int))
(declare-fun |#length_3| () (Array Int Int))
(declare-fun |#memory_int#2_3| () (Array Int (Array Int Int)))
(declare-fun |#memory_int#1_3| () (Array Int (Array Int Int)))
(declare-fun |#memory_int#3_3| () (Array Int (Array Int Int)))
(declare-fun |main_~#b~0.base_4| () Int)
(declare-fun |#valid_4| () (Array Int Int))
(declare-fun |main_~#c~0.base_4| () Int)
(declare-fun |#length_4| () (Array Int Int))
(declare-fun |#memory_int#1_4| () (Array Int (Array Int Int)))
(declare-fun |main_~#a~0.base_4| () Int)
(declare-fun |main_~#a~0.offset_4| () Int)
(declare-fun |main_~#b~0.offset_4| () Int)
(declare-fun |main_~#c~0.offset_4| () Int)
(declare-fun v_ArrVal_1_fresh_1 () Int)
(declare-fun v_ArrVal_4_fresh_1 () Int)
(declare-fun v_ArrVal_2_fresh_1 () Int)
(declare-fun v_ArrVal_3_fresh_1 () Int)
(declare-fun v_ArrVal_8_fresh_1 () Int)
(declare-fun v_ArrVal_6_fresh_1 () Int)
(declare-fun v_ArrVal_5_fresh_1 () (Array Int Int))
(declare-fun v_ArrVal_7_fresh_1 () Int)
(declare-fun |old(#memory_int#2)_5| () (Array Int (Array Int Int)))
(declare-fun |old(#memory_int#1)_5| () (Array Int (Array Int Int)))
(declare-fun |old(#memory_int#3)_5| () (Array Int (Array Int Int)))
(declare-fun |#memory_int#2_5| () (Array Int (Array Int Int)))
(declare-fun |#memory_int#1_5| () (Array Int (Array Int Int)))
(declare-fun |#memory_int#3_5| () (Array Int (Array Int Int)))
(declare-fun |func_to_recursive_line_21_to_22_0_#in~a.offset_5| () Int)
(declare-fun |main_~#b~0.base_5| () Int)
(declare-fun |func_to_recursive_line_21_to_22_0_#in~c.base_5| () Int)
(declare-fun |func_to_recursive_line_21_to_22_0_#in~b.base_5| () Int)
(declare-fun |func_to_recursive_line_21_to_22_0_#in~c.offset_5| () Int)
(declare-fun |main_~#c~0.base_5| () Int)
(declare-fun |func_to_recursive_line_21_to_22_0_#in~a.base_5| () Int)
(declare-fun |func_to_recursive_line_21_to_22_0_#in~b.offset_5| () Int)
(declare-fun |main_~#a~0.base_5| () Int)
(declare-fun |main_~#a~0.offset_5| () Int)
(declare-fun |main_~#b~0.offset_5| () Int)
(declare-fun |main_~#c~0.offset_5| () Int)
(declare-fun func_to_recursive_line_21_to_22_0_~c.base_6 () Int)
(declare-fun func_to_recursive_line_21_to_22_0_~b.base_6 () Int)
(declare-fun func_to_recursive_line_21_to_22_0_~a.offset_6 () Int)
(declare-fun |func_to_recursive_line_21_to_22_0_#t~mem10_6| () Int)
(declare-fun func_to_recursive_line_21_to_22_0_~c.offset_6 () Int)
(declare-fun func_to_recursive_line_21_to_22_0_~a.base_6 () Int)
(declare-fun func_to_recursive_line_21_to_22_0_~b.offset_6 () Int)
(declare-fun |func_to_recursive_line_21_to_22_0_#t~mem10_7| () Int)
(declare-fun |main_#t~short15_10| () Bool)
(declare-fun |main_~#a~0.offset_10| () Int)
(declare-fun |v_main_#t~mem13_5_fresh_1| () Int)
(declare-fun |main_#t~short15_11| () Bool)
(declare-fun |main_~#b~0.offset_11| () Int)
(declare-fun |v_main_#t~mem14_5_fresh_1| () Int)
(declare-fun |main_#t~short15_12| () Bool)
(declare-fun |main_#t~short17_12| () Bool)
(declare-fun |main_#t~mem13_14| () Int)
(declare-fun |main_#t~mem14_14| () Int)
(declare-fun |main_#t~short15_14| () Bool)
(declare-fun |main_#t~short17_14| () Bool)
(declare-fun |main_#t~mem16_14| () Int)
(assert (! true :named ssa_precond))
(assert (! (not false) :named ssa_postcond))
(assert (! true :named ssa_0_GlobVarAssigCall))
(assert (! true :named ssa_0_LocVarAssigCall))
(assert (! true :named ssa_0_OldVarAssigCall))
(assert (! (and (= (select |#valid_-1| 1) 1) (= (select |#valid_-1| 2) 1) (= (select |#valid_-1| 3) 1) (< 0 |#StackHeapBarrier_-1|) (= (select |#length_-1| 3) 12) (= (select |#valid_-1| 0) 0) (= (select |#length_-1| 2) 11) (= (select (select |#memory_int#0_-1| 1) 1) 0) (= (select (select |#memory_int#0_-1| 1) 0) 48) (= (select |#length_-1| 1) 2)) :named ssa_1))
(assert (! true :named ssa_2_return))
(assert (! (and (= |old(#valid)_3| |#valid_3|) (= |old(#memory_int#3)_3| |#memory_int#3_3|) (= |old(#memory_int#2)_3| |#memory_int#2_3|) (= |#length_3| |old(#length)_3|) (= |old(#memory_int#1)_3| |#memory_int#1_3|)) :named ssa_3_GlobVarAssigCall))
(assert (! true :named ssa_3_LocVarAssigCall))
(assert (! (and (= |old(#length)_3| |#length_-1|) (= |#valid_-1| |old(#valid)_3|) (= |old(#memory_int#2)_3| |#memory_int#2_-1|) (= |old(#memory_int#3)_3| |#memory_int#3_-1|) (= |old(#memory_int#1)_3| |#memory_int#1_-1|)) :named ssa_3_OldVarAssigCall))
(assert (! (and (= (select (store |#valid_3| |main_~#a~0.base_4| v_ArrVal_8_fresh_1) |main_~#b~0.base_4|) 0) (= v_ArrVal_2_fresh_1 0) (= 4 v_ArrVal_1_fresh_1) (= v_ArrVal_8_fresh_1 1) (= |#memory_int#1_4| (store |#memory_int#1_3| |main_~#a~0.base_4| v_ArrVal_5_fresh_1)) (= |#valid_4| (store (store (store |#valid_3| |main_~#a~0.base_4| v_ArrVal_8_fresh_1) |main_~#b~0.base_4| v_ArrVal_4_fresh_1) |main_~#c~0.base_4| v_ArrVal_6_fresh_1)) (= (select (select |#memory_int#1_3| |main_~#a~0.base_4|) |main_~#a~0.offset_4|) 6) (= v_ArrVal_4_fresh_1 1) (< |#StackHeapBarrier_-1| |main_~#a~0.base_4|) (< |#StackHeapBarrier_-1| |main_~#c~0.base_4|) (= |main_~#b~0.offset_4| 0) (= 0 |main_~#c~0.offset_4|) (= (select (store (store |#valid_3| |main_~#a~0.base_4| v_ArrVal_8_fresh_1) |main_~#b~0.base_4| v_ArrVal_4_fresh_1) |main_~#c~0.base_4|) 0) (not (= |main_~#a~0.base_4| 0)) (not (= |main_~#b~0.base_4| 0)) (= (select (select |#memory_int#2_3| |main_~#c~0.base_4|) |main_~#c~0.offset_4|) 6) (= |main_~#a~0.offset_4| 0) (not (= |main_~#c~0.base_4| 0)) (= (select |#valid_3| |main_~#a~0.base_4|) 0) (< |#StackHeapBarrier_-1| |main_~#b~0.base_4|) (= 6 (select (select |#memory_int#3_3| |main_~#b~0.base_4|) |main_~#b~0.offset_4|)) (= (store (select |#memory_int#1_3| |main_~#a~0.base_4|) |main_~#a~0.offset_4| v_ArrVal_2_fresh_1) v_ArrVal_5_fresh_1) (= |#length_4| (store (store (store |#length_3| |main_~#a~0.base_4| v_ArrVal_3_fresh_1) |main_~#b~0.base_4| v_ArrVal_1_fresh_1) |main_~#c~0.base_4| v_ArrVal_7_fresh_1)) (= v_ArrVal_6_fresh_1 1) (= 4 v_ArrVal_7_fresh_1) (= 4 v_ArrVal_3_fresh_1)) :named ssa_4))
(assert (! (and (= |old(#memory_int#3)_5| |#memory_int#3_5|) (= |old(#memory_int#2)_5| |#memory_int#2_5|) (= |old(#memory_int#1)_5| |#memory_int#1_5|)) :named ssa_5_GlobVarAssigCall))
(assert (! (and (= |func_to_recursive_line_21_to_22_0_#in~c.offset_5| |main_~#c~0.offset_4|) (= |func_to_recursive_line_21_to_22_0_#in~a.base_5| |main_~#a~0.base_4|) (= |func_to_recursive_line_21_to_22_0_#in~c.base_5| |main_~#c~0.base_4|) (= |func_to_recursive_line_21_to_22_0_#in~a.offset_5| |main_~#a~0.offset_4|) (= |func_to_recursive_line_21_to_22_0_#in~b.base_5| |main_~#b~0.base_4|) (= |main_~#b~0.offset_4| |func_to_recursive_line_21_to_22_0_#in~b.offset_5|)) :named ssa_5_LocVarAssigCall))
(assert (! (and (= |old(#memory_int#2)_5| |#memory_int#2_3|) (= |old(#memory_int#3)_5| |#memory_int#3_3|) (= |old(#memory_int#1)_5| |#memory_int#1_4|)) :named ssa_5_OldVarAssigCall))
(assert (! (and (= |func_to_recursive_line_21_to_22_0_#in~a.offset_5| func_to_recursive_line_21_to_22_0_~a.offset_6) (= |func_to_recursive_line_21_to_22_0_#in~b.offset_5| func_to_recursive_line_21_to_22_0_~b.offset_6) (= |func_to_recursive_line_21_to_22_0_#in~c.offset_5| func_to_recursive_line_21_to_22_0_~c.offset_6) (= |func_to_recursive_line_21_to_22_0_#in~a.base_5| func_to_recursive_line_21_to_22_0_~a.base_6) (= |func_to_recursive_line_21_to_22_0_#in~c.base_5| func_to_recursive_line_21_to_22_0_~c.base_6) (= (select (select |#memory_int#1_5| func_to_recursive_line_21_to_22_0_~a.base_6) func_to_recursive_line_21_to_22_0_~a.offset_6) |func_to_recursive_line_21_to_22_0_#t~mem10_6|) (= |func_to_recursive_line_21_to_22_0_#in~b.base_5| func_to_recursive_line_21_to_22_0_~b.base_6)) :named ssa_6))
(assert (! (<= 6 |func_to_recursive_line_21_to_22_0_#t~mem10_6|) :named ssa_7))
(assert (! true :named ssa_8))
(assert (! true :named ssa_9_return))
(assert (! (and (or (and (not |main_#t~short15_10|) (not (= 6 |v_main_#t~mem13_5_fresh_1|))) (and |main_#t~short15_10| (= 6 |v_main_#t~mem13_5_fresh_1|))) (= (select (select |#memory_int#1_5| |main_~#a~0.base_4|) |main_~#a~0.offset_4|) |v_main_#t~mem13_5_fresh_1|)) :named ssa_10))
(assert (! (and (or (and (= 6 |v_main_#t~mem14_5_fresh_1|) |main_#t~short15_11|) (and (not |main_#t~short15_11|) (not (= 6 |v_main_#t~mem14_5_fresh_1|)))) (= (select (select |#memory_int#3_5| |main_~#b~0.base_4|) |main_~#b~0.offset_4|) |v_main_#t~mem14_5_fresh_1|) |main_#t~short15_10|) :named ssa_11))
(assert (! (or (and |main_#t~short17_12| |main_#t~short15_11|) (and (not |main_#t~short15_11|) (not |main_#t~short17_12|))) :named ssa_12))
(assert (! (not |main_#t~short17_12|) :named ssa_13))
(assert (! (not |main_#t~short17_12|) :named ssa_14))
(assert (! true :named ssa_15))
(check-sat)
(get-interpolants (and ssa_0_LocVarAssigCall ssa_precond ssa_0_GlobVarAssigCall ssa_0_OldVarAssigCall ssa_2_return ssa_1) (and ssa_3_OldVarAssigCall ssa_3_LocVarAssigCall ssa_3_GlobVarAssigCall) ssa_4 (and ssa_5_LocVarAssigCall ssa_5_GlobVarAssigCall ssa_7 ssa_6 ssa_8 ssa_5_OldVarAssigCall ssa_9_return) ssa_10 ssa_11 ssa_12 ssa_13 ssa_14 (and ssa_15 ssa_postcond))
(echo "finished trace check")
(pop 1)
(echo "starting trace check")
(push 1)
(declare-fun |#memory_int#0_-2| () (Array Int (Array Int Int)))
(declare-fun |#valid_-2| () (Array Int Int))
(declare-fun |#length_-2| () (Array Int Int))
(declare-fun |#memory_int#2_-2| () (Array Int (Array Int Int)))
(declare-fun |#memory_int#1_-2| () (Array Int (Array Int Int)))
(declare-fun |#memory_int#3_-2| () (Array Int (Array Int Int)))
(declare-fun |old(#memory_int#0)_-2| () (Array Int (Array Int Int)))
(declare-fun |old(#valid)_-2| () (Array Int Int))
(declare-fun |old(#length)_-2| () (Array Int Int))
(declare-fun |old(#memory_int#2)_-2| () (Array Int (Array Int Int)))
(declare-fun |old(#memory_int#1)_-2| () (Array Int (Array Int Int)))
(declare-fun |old(#memory_int#3)_-2| () (Array Int (Array Int Int)))
(declare-fun |#StackHeapBarrier_-1| () Int)
(assert (! true :named ssa_precond))
(assert (! (not true) :named ssa_postcond))
(assert (! (and (= (select |#valid_-2| 1) 1) (= (select |#valid_-2| 2) 1) (= (select |#valid_-2| 3) 1) (< 0 |#StackHeapBarrier_-1|) (= (select |#length_-2| 3) 12) (= (select |#valid_-2| 0) 0) (= (select |#length_-2| 2) 11) (= (select (select |#memory_int#0_-2| 1) 1) 0) (= (select (select |#memory_int#0_-2| 1) 0) 48) (= (select |#length_-2| 1) 2)) :named ssa_0))
(assert (! true :named ssa_1_return))
(assert (! true :named ssa_-2_PendingContext))
(assert (! true :named ssa_-2_LocVarAssignPendingContext))
(assert (! true :named ssa_-2_OldVarAssignPendingContext))
(check-sat)
(get-interpolants (and ssa_0 ssa_precond) (and ssa_-2_PendingContext ssa_-2_LocVarAssignPendingContext ssa_-2_OldVarAssignPendingContext ssa_1_return ssa_postcond))
(echo "finished trace check")
(pop 1)
(echo "starting trace check")
(push 1)
(declare-fun |#valid_-2| () (Array Int Int))
(declare-fun |#length_-2| () (Array Int Int))
(declare-fun |#memory_int#2_-2| () (Array Int (Array Int Int)))
(declare-fun |#memory_int#1_-2| () (Array Int (Array Int Int)))
(declare-fun |#memory_int#3_-2| () (Array Int (Array Int Int)))
(declare-fun |old(#valid)_-2| () (Array Int Int))
(declare-fun |old(#length)_-2| () (Array Int Int))
(declare-fun |old(#memory_int#2)_-2| () (Array Int (Array Int Int)))
(declare-fun |old(#memory_int#1)_-2| () (Array Int (Array Int Int)))
(declare-fun |old(#memory_int#3)_-2| () (Array Int (Array Int Int)))
(declare-fun |main_~#a~0.base_-2| () Int)
(declare-fun |main_~#a~0.offset_-2| () Int)
(declare-fun |main_~#b~0.base_-2| () Int)
(declare-fun |main_~#c~0.base_-2| () Int)
(declare-fun |main_~#b~0.offset_-2| () Int)
(declare-fun |main_~#c~0.offset_-2| () Int)
(declare-fun |old(#memory_int#2)_-1| () (Array Int (Array Int Int)))
(declare-fun |old(#memory_int#1)_-1| () (Array Int (Array Int Int)))
(declare-fun |old(#memory_int#3)_-1| () (Array Int (Array Int Int)))
(declare-fun |func_to_recursive_line_21_to_22_0_#in~a.offset_-1| () Int)
(declare-fun |main_~#b~0.base_-1| () Int)
(declare-fun |func_to_recursive_line_21_to_22_0_#in~c.base_-1| () Int)
(declare-fun |func_to_recursive_line_21_to_22_0_#in~b.base_-1| () Int)
(declare-fun |func_to_recursive_line_21_to_22_0_#in~c.offset_-1| () Int)
(declare-fun |main_~#c~0.base_-1| () Int)
(declare-fun |func_to_recursive_line_21_to_22_0_#in~a.base_-1| () Int)
(declare-fun |func_to_recursive_line_21_to_22_0_#in~b.offset_-1| () Int)
(declare-fun |main_~#a~0.base_-1| () Int)
(declare-fun |main_~#a~0.offset_-1| () Int)
(declare-fun |main_~#b~0.offset_-1| () Int)
(declare-fun |main_~#c~0.offset_-1| () Int)
(declare-fun |#memory_int#2_-1| () (Array Int (Array Int Int)))
(declare-fun |#memory_int#1_-1| () (Array Int (Array Int Int)))
(declare-fun |#memory_int#3_-1| () (Array Int (Array Int Int)))
(declare-fun func_to_recursive_line_21_to_22_0_~c.base_0 () Int)
(declare-fun func_to_recursive_line_21_to_22_0_~b.base_0 () Int)
(declare-fun func_to_recursive_line_21_to_22_0_~a.offset_0 () Int)
(declare-fun |func_to_recursive_line_21_to_22_0_#t~mem10_0| () Int)
(declare-fun func_to_recursive_line_21_to_22_0_~c.offset_0 () Int)
(declare-fun func_to_recursive_line_21_to_22_0_~a.base_0 () Int)
(declare-fun func_to_recursive_line_21_to_22_0_~b.offset_0 () Int)
(declare-fun |func_to_recursive_line_21_to_22_0_#t~mem10_1| () Int)
(assert (! (and (= |#memory_int#2_-1| |old(#memory_int#2)_-1|) (= |#memory_int#1_-1| |old(#memory_int#1)_-1|) (= |#memory_int#3_-1| |old(#memory_int#3)_-1|)) :named ssa_precond))
(assert (! (not false) :named ssa_postcond))
(assert (! (and (= |func_to_recursive_line_21_to_22_0_#in~a.offset_-1| func_to_recursive_line_21_to_22_0_~a.offset_0) (= |func_to_recursive_line_21_to_22_0_#in~b.offset_-1| func_to_recursive_line_21_to_22_0_~b.offset_0) (= |func_to_recursive_line_21_to_22_0_#in~c.offset_-1| func_to_recursive_line_21_to_22_0_~c.offset_0) (= |func_to_recursive_line_21_to_22_0_#in~a.base_-1| func_to_recursive_line_21_to_22_0_~a.base_0) (= |func_to_recursive_line_21_to_22_0_#in~c.base_-1| func_to_recursive_line_21_to_22_0_~c.base_0) (= (select (select |#memory_int#1_-1| func_to_recursive_line_21_to_22_0_~a.base_0) func_to_recursive_line_21_to_22_0_~a.offset_0) |func_to_recursive_line_21_to_22_0_#t~mem10_0|) (= |func_to_recursive_line_21_to_22_0_#in~b.base_-1| func_to_recursive_line_21_to_22_0_~b.base_0)) :named ssa_0))
(assert (! (<= 6 |func_to_recursive_line_21_to_22_0_#t~mem10_0|) :named ssa_1))
(assert (! true :named ssa_2))
(assert (! true :named ssa_3_return))
(assert (! (= 0 (select (select |#memory_int#1_-2| |main_~#a~0.base_-2|) |main_~#a~0.offset_-2|)) :named ssa_-2_PendingContext))
(assert (! (and (= |func_to_recursive_line_21_to_22_0_#in~c.offset_-1| |main_~#c~0.offset_-2|) (= |func_to_recursive_line_21_to_22_0_#in~a.base_-1| |main_~#a~0.base_-2|) (= |func_to_recursive_line_21_to_22_0_#in~c.base_-1| |main_~#c~0.base_-2|) (= |func_to_recursive_line_21_to_22_0_#in~a.offset_-1| |main_~#a~0.offset_-2|) (= |func_to_recursive_line_21_to_22_0_#in~b.base_-1| |main_~#b~0.base_-2|) (= |main_~#b~0.offset_-2| |func_to_recursive_line_21_to_22_0_#in~b.offset_-1|)) :named ssa_-2_LocVarAssignPendingContext))
(assert (! (and (= |old(#memory_int#2)_-1| |#memory_int#2_-2|) (= |old(#memory_int#3)_-1| |#memory_int#3_-2|) (= |old(#memory_int#1)_-1| |#memory_int#1_-2|)) :named ssa_-2_OldVarAssignPendingContext))
(check-sat)
(get-interpolants (and ssa_0 ssa_precond) ssa_1 ssa_2 (and ssa_-2_PendingContext ssa_3_return ssa_-2_LocVarAssignPendingContext ssa_-2_OldVarAssignPendingContext ssa_postcond))
(echo "finished trace check")
(pop 1)
(exit)
